10
0 42 18 78 6 60 11 96 34 36 
94 0 90 22 33 82 42 41 26 60 
8 7 0 13 92 4 59 13 17 1 
1 60 41 0 38 33 32 57 71 37 
93 5 94 60 0 84 38 67 72 78 
83 57 85 60 69 0 89 86 50 71 
44 31 6 46 76 8 0 50 2 31 
93 56 88 84 74 5 40 0 50 85 
8 70 70 41 33 89 95 30 0 5 
16 36 71 7 37 86 98 95 58 0 
